NAME : tsp_322_sol.txt
COMMENT : OR-Tools Guided Local Search
TYPE : TOUR
DIMENSION : 137
COST : 9226
STATUS : ROUTING_SUCCESS
GAP : 0.00% (Reference Solution)
TOUR_SECTION
1
78
86
57
36
115
89
70
18
83
8
136
112
62
68
111
80
28
48
95
125
119
16
17
52
26
72
61
69
103
137
131
108
60
73
12
10
85
2
127
38
15
98
65
124
110
39
20
47
77
109
29
22
81
84
100
49
92
42
24
41
118
93
67
34
3
50
132
121
51
27
104
25
88
114
33
40
117
31
11
105
37
59
94
97
96
35
58
120
91
102
75
113
99
44
46
107
122
23
101
45
54
90
134
4
5
30
133
116
66
32
106
76
43
64
14
135
123
56
79
71
126
9
74
53
19
13
129
128
130
55
82
6
63
7
87
21
-1
